15	2	2
5000	5000	
112	632	872	
580	852	1060	
814	247	420	
751	858	1037	
621	393	416	
340	712	1097	
811	911	999	
985	881	1409	
663	425	562	
535	509	1009	
692	641	726	
929	845	846	
626	535	1004	
166	840	1269	
625	720	963	
